p tw 158 173
1 2
2 71
3 14
4 5
5 6
6 7
7 8
8 9
9 10
10 11
11 12
12 13
13 15
14 25
14 58
15 16
16 17
17 18
18 19
19 20
20 21
21 22
22 23
23 24
24 26
25 36
26 27
27 28
28 29
29 30
30 31
31 32
32 33
33 34
34 35
35 37
36 47
37 38
38 39
39 40
40 41
40 53
41 42
42 43
43 44
44 45
45 46
46 48
47 115
48 49
49 50
50 51
51 52
52 65
53 54
54 55
55 56
56 57
57 59
58 67
59 60
60 61
61 62
62 63
63 64
64 65
65 66
67 68
68 69
68 70
69 65
70 72
71 82
72 73
73 74
74 75
75 76
76 77
77 78
78 79
78 97
79 80
80 81
81 83
82 93
83 84
83 89
84 85
85 86
86 87
87 88
88 80
89 90
90 91
91 92
92 94
93 104
94 95
95 96
96 97
97 98
98 99
99 100
100 101
101 102
101 106
102 103
103 105
104 115
105 108
106 107
107 108
108 109
109 110
110 111
111 112
112 113
113 114
114 116
115 126
116 117
116 123
117 118
118 119
118 123
119 120
120 121
120 123
121 122
122 123
122 128
123 124
124 125
125 127
126 137
127 138
128 129
129 130
130 131
131 132
132 133
133 134
134 135
135 136
136 138
136 113
137 148
138 139
139 140
140 141
141 142
141 143
142 143
143 144
144 145
145 146
146 147
147 149
148 3
148 58
149 150
149 153
150 151
150 153
151 152
152 145
153 154
154 155
154 157
155 156
156 5
157 158
158 4
